(set-info :Origin "This instance was generated by: BanditFuzz-- an RL fuzzer for SMT solvers" )
(set-info :Author "Joe Scott, Fed Mora, Vijay Ganesh" )
(set-info :Contact "Joe Scott, joseph.scott@uwaterloo.ca")
; solvers/z3.sh
; 	time => 0.21082043647766113
; 	answer => err
; solvers/bitwuzla.sh
; 	time => 0.20323514938354492
; 	answer => err
(set-logic QF_BV)
(declare-const bool_0 Bool)
(declare-const bool_1 Bool)
(declare-const bool_2 Bool)
(declare-const bool_3 Bool)
(declare-const bool_4 Bool)
(declare-const bv_0 (_ BitVec 8))
(declare-const bv_1 (_ BitVec 8))
(declare-const bv_2 (_ BitVec 8))
(declare-const bv_3 (_ BitVec 8))
(declare-const bv_4 (_ BitVec 8))
(assert (xor (bvsgt (bvashr bv_4 bv_2) (bvsub bv_2 #x00000041 )) (bvsge (bvsrem #x000000e2  bv_4) (bvnor bv_2 #x00000051 ))))
(assert (bvule (bvashr (bvor #x000000e0  bv_3) (bvudiv bv_0 bv_1)) (bvxor (bvadd bv_0 bv_3) (bvadd #x00000054  #x00000098 ))))
(assert (bvsge (bvnand (bvmul bv_0 bv_2) (bvnor #x0000000f  #x000000ec )) (bvsmod (bvmul bv_3 bv_2) (bvnand bv_2 bv_0))))
(assert (or (bvule (bvshl #x00000066  #x00000074 ) (bvudiv bv_4 #x00000056 )) (=> (bvslt #x000000a3  #x00000012 ) (bvsle #x000000f7  #x0000008a ))))
(assert (bvugt (bvurem (bvand bv_1 bv_1) (bvsdiv #x000000ad  #x00000055 )) (bvxor (bvand #x00000063  #x00000061 ) (bvsmod bv_2 #x000000ba ))))
(check-sat)
(exit)
